(set-info :smt-lib-version 2.6)
(set-logic QF_S)
(set-info :source |
Generated by: Murphy Berzish, Mitja Kulczynski, Federico Mora, Florin Manea, Joel Day, Dirk Nowotka, Vijay Ganesh, Zhengyang Lu
Generated on: 2020-10-01
Description: Translated from a collection of real-world regex queries, AutomataArk, collected by Loris D’Antoni and Fang Wang: https://github.com/lorisdanto/automatark
Application: Evaluate solvers on real-world regex queries
Target solver: Z3str3RE, CVC4, OSTRICH, Z3seq, Z3str3, Z3-Trau
Publications: Berzish, M., Kulczynski, M., Mora, F., Manea, F., Day, J. D., Nowotka, D., & Ganesh, V. (2021, July). An SMT solver for regular expressions and linear arithmetic over string length. In CAV 2021.
|)
(set-info :license "https://creativecommons.org/licenses/by/4.0/")
(set-info :category "industrial")
(set-info :status unsat)

(declare-const X String)
(assert (not (str.in_re X (re.++ (re.opt (str.to_re "+39")) (re.union (re.++ (str.to_re "38") (re.union (str.to_re "{") (str.to_re "8") (str.to_re ",") (str.to_re "9") (str.to_re "}") (str.to_re "|") (str.to_re "0"))) (re.++ (str.to_re "34") (re.union (str.to_re "{") (re.range "7" "9") (str.to_re "}") (str.to_re "|") (str.to_re "0"))) (re.++ (str.to_re "36") (re.union (str.to_re "6") (str.to_re "|") (str.to_re "8") (str.to_re "0"))) (re.++ (str.to_re "33") (re.union (str.to_re "{") (re.range "3" "9") (str.to_re "}") (str.to_re "|") (str.to_re "0"))) (re.++ (str.to_re "32") (re.union (str.to_re "{") (str.to_re "8") (str.to_re ",") (str.to_re "9") (str.to_re "}")))) ((_ re.loop 7 7) (re.range "0" "9")) (str.to_re "\u{a}")))))
(assert (str.in_re X (re.++ (str.to_re ".html") (re.* re.allchar) (str.to_re "cm") (re.* re.allchar) (str.to_re "www.peer2mail.comConnectedStubbyawbeta.net-nucleus.com\u{a}"))))
(assert (str.in_re X (re.++ (str.to_re "vb") (re.+ (re.union (str.to_re " ") (str.to_re "\u{9}") (str.to_re "\u{a}") (str.to_re "\u{c}") (str.to_re "\u{d}"))) (str.to_re "Host:Subject:online-casino-searcher.com\u{a}"))))
(assert (str.in_re X (re.++ (str.to_re "url(") (re.opt (re.union (str.to_re "'") (str.to_re "\u{22}"))) (re.+ (re.union (re.range "0" "9") (str.to_re "_") (str.to_re "-") (str.to_re ".") (str.to_re " ") (re.range "0" "9") (re.range "A" "Z") (re.range "a" "z") (str.to_re "_"))) (re.opt (re.union (str.to_re "'") (str.to_re "\u{22}"))) (str.to_re ")\u{a}"))))
(check-sat)

(exit)
